COLUMNS

passenger_count
pickup_ID
dropoff_ID
request_time_sec
pickup_district
dropoff_district
LDuals
IDuals
vehicle_ID
pick_position
drop_position

REQUESTS_INFO
1      905       1068      29438     290       291       218       218       24        1         2         
2      235       443       29452     87        168       168       168       33        1         2         
1      804       443       29489     291       168       103       103       71        1         3         
1      460       523       29442     189       52        166       166       84        1         3         
1      237       928       29434     87        290       219       219       98        1         2         
1      894       857       29474     291       290       144       144       170       1         2         
1      984       535       29476     291       189       233       233       183       1         3         
1      984       324       29469     291       299       240       240       206       1         3         
3      208       673       29431     286       189       168       168       221       1         2         
1      1120      917       29463     84        291       167       167       242       1         3         
1      61        30        29488     98        9         96        96        305       1         2         
3      862       698       29450     290       189       247       247       325       1         2         
1      745       907       29460     290       290       148       148       333       1         4         
1      436       356       29472     100       119       104       104       362       1         2         
1      817       466       29462     290       199       137       137       367       1         3         
1      663       724       29447     131       290       94        94        377       1         4         
1      292       805       29477     87        291       104       104       390       1         4         
1      950       817       29475     290       290       146       146       402       1         3         
1      691       725       29474     131       290       125       125       448       1         3         
2      505       535       29484     52        189       127       127       464       1         3         
1      351       208       29487     52        286       172       172       521       1         2         
2      839       940       29442     290       291       244       244       536       1         2         
1      1171      1357      29486     192       129       163       163       547       1         3         
1      1210      983       29464     129       291       205       205       547       2         4         
1      330       286       29478     127       299       208       208       560       1         3         
3      510       971       29468     199       290       128       128       563       1         2         
2      850       651       29487     291       189       124       124       599       1         2         
2      873       1169      29477     291       291       135       135       613       1         3         
2      905       991       29425     290       290       223       223       619       1         2         
3      995       1265      29464     84        192       206       206       641       1         3         
1      971       1087      29430     290       291       220       220       658       1         2         
1      811       698       29474     290       189       118       118       691       1         2         
3      409       544       29488     52        52        165       165       714       1         2         
1      354       184       29488     119       87        133       133       718       1         3         
1      937       847       29437     291       291       194       194       735       1         2         
2      1031      669       29483     50        280       188       188       736       1         2         
1      833       924       29484     50        290       121       121       738       1         3         
1      816       860       29462     290       290       149       149       763       1         3         
1      273       408       29459     206       299       161       161       775       1         3         
1      917       938       29476     291       291       145       145       810       1         2         
1      927       837       29463     290       290       194       194       817       1         2         
1      249       219       29442     266       87        243       243       825       1         2         
1      881       605       29467     290       189       177       177       858       1         4         
1      618       692       29458     131       280       145       145       860       1         2         
1      969       674       29468     290       189       156       156       896       1         5         
1      969       789       29469     290       290       155       155       896       2         3         
1      1044      789       29471     291       290       167       167       898       1         3         
1      523       415       29453     52        100       148       148       911       1         2         
1      366       716       29475     299       189       151       151       959       1         2         
3      374       408       29445     119       299       179       179       1010      1         2         
3      793       904       29460     290       290       201       201       1026      1         2         
1      354       737       29467     119       189       141       141       1052      1         3         
2      208       410       29462     286       52        137       137       1155      1         2         
1      829       574       29460     50        189       129       129       1191      1         2         
2      991       906       29461     290       290       174       174       1201      1         2         
3      904       743       29460     290       290       181       181       1211      1         3         
1      860       602       29479     290       189       156       156       1274      1         3         
1      930       1154      29456     999       129       171       171       1285      1         2         
1      959       881       29225     291       290       424       424       1372      1         2         
1      838       559       29468     290       189       127       127       1376      1         2         
3      749       378       29476     290       168       135       135       1416      1         2         
1      389       474       29381     299       52        259       259       1445      1         2         
1      595       669       29461     131       280       142       142       1474      1         2         
3      1001      923       29400     291       290       242       242       1784      1         2         
2      850       959       29471     291       291       140       140       1805      1         2         
1      433       533       29471     52        199       144       144       1827      1         2         
1      772       939       29475     290       291       116       116       1843      1         4         
3      793       904       29460     290       290       201       201       1843      2         3         
3      884       971       29471     290       290       164       164       1888      1         2         
1      332       313       29444     87        87        189       189       1889      1         2         
1      371       325       29487     52        299       125       125       1903      1         2         
3      1107      1263      29461     291       192       198       198       1908      1         2         
1      662       526       29441     131       52        157       157       1913      1         2         
1      526       409       29477     52        52        102       102       1914      1         2         
3      861       916       29418     290       291       240       240       1946      1         2         
1      950       883       29488     290       290       133       133       1949      1         2         
3      1225      925       29474     192       290       117       117       1993      1         3         
2      723       837       29490     290       290       0         0         0         0         0         
3      723       837       29490     290       290       0         0         0         0         0         
1      1047      530       29490     291       189       0         0         0         0         0         
1      662       669       29490     131       280       0         0         0         0         0         
1      442       377       29490     168       168       0         0         0         0         0         
1      438       671       29490     100       280       0         0         0         0         0         
1      913       1529      29490     291       296       0         0         0         0         0         
1      667       643       29491     131       131       0         0         0         0         0         
1      46        30        29491     98        9         0         0         0         0         0         
1      236       484       29491     87        189       0         0         0         0         0         
1      749       701       29492     290       290       0         0         0         0         0         
1      251       414       29492     127       100       0         0         0         0         0         
1      306       393       29492     299       52        0         0         0         0         0         
1      134       671       29492     9         280       0         0         0         0         0         
1      523       116       29492     52        9         0         0         0         0         0         
1      632       906       29492     189       290       0         0         0         0         0         
1      842       556       29492     290       199       0         0         0         0         0         
1      372       600       29493     119       280       0         0         0         0         0         
1      1004      626       29493     291       189       0         0         0         0         0         
1      924       627       29493     290       189       0         0         0         0         0         
1      655       904       29493     189       290       0         0         0         0         0         
2      929       489       29494     290       199       0         0         0         0         0         
1      441       628       29494     168       189       0         0         0         0         0         
4      628       743       29494     189       290       0         0         0         0         0         
1      759       693       29494     131       280       0         0         0         0         0         
1      307       353       29495     127       119       0         0         0         0         0         
2      647       628       29495     280       189       0         0         0         0         0         
1      770       652       29495     290       189       0         0         0         0         0         
3      438       600       29496     100       280       0         0         0         0         0         
2      438       600       29496     100       280       0         0         0         0         0         
1      526       765       29496     52        290       0         0         0         0         0         
1      556       504       29496     199       52        0         0         0         0         0         
2      693       527       29496     280       52        0         0         0         0         0         
1      690       431       29496     131       52        0         0         0         0         0         
1      441       669       29496     168       280       0         0         0         0         0         
1      603       761       29497     189       50        0         0         0         0         0         
2      676       582       29497     189       189       0         0         0         0         0         
1      312       50        29498     87        999       0         0         0         0         0         
1      621       721       29498     280       290       0         0         0         0         0         
1      972       815       29498     290       290       0         0         0         0         0         
1      436       529       29498     100       189       0         0         0         0         0         
1      465       232       29499     199       266       0         0         0         0         0         
1      674       604       29499     189       189       0         0         0         0         0         
1      992       782       29499     290       291       0         0         0         0         0         
3      509       721       29499     199       290       0         0         0         0         0         
3      509       721       29499     199       290       0         0         0         0         0         
2      256       504       29499     87        52        0         0         0         0         0         
3      60        415       29499     9         100       0         0         0         0         0         
1      737       675       29500     189       189       0         0         0         0         0         
2      556       507       29500     199       189       0         0         0         0         0         
1      460       193       29500     189       266       0         0         0         0         0         
2      334       555       29500     119       199       0         0         0         0         0         
1      700       926       29500     290       290       0         0         0         0         0         
1      693       676       29500     280       189       0         0         0         0         0         
1      989       770       29500     50        290       0         0         0         0         0         
1      674       859       29501     189       290       0         0         0         0         0         
1      980       717       29501     291       189       0         0         0         0         0         
1      1107      1045      29501     291       291       0         0         0         0         0         
3      527       535       29501     52        189       0         0         0         0         0         
1      652       727       29501     189       290       0         0         0         0         0         
1      1010      755       29502     290       131       0         0         0         0         0         
1      928       696       29502     290       189       0         0         0         0         0         
3      969       794       29502     290       290       0         0         0         0         0         
1      287       287       29502     299       299       0         0         0         0         0         
1      618       873       29502     131       291       0         0         0         0         0         
1      642       578       29502     131       189       0         0         0         0         0         
1      413       651       29503     52        189       0         0         0         0         0         
2      31        499       29503     9         52        0         0         0         0         0         
1      621       624       29503     280       189       0         0         0         0         0         
1      780       616       29503     291       131       0         0         0         0         0         
1      236       412       29503     87        52        0         0         0         0         0         
1      556       738       29503     199       189       0         0         0         0         0         
2      508       694       29504     199       189       0         0         0         0         0         
1      47        629       29504     98        189       0         0         0         0         0         
1      989       969       29504     50        290       0         0         0         0         0         
3      115       429       29505     9         999       0         0         0         0         0         
1      274       305       29505     87        299       0         0         0         0         0         
1      313       148       29505     87        178       0         0         0         0         0         
2      1176      1091      29505     129       291       0         0         0         0         0         
3      1176      1091      29505     129       291       0         0         0         0         0         
2      134       303       29505     9         299       0         0         0         0         0         
1      857       529       29505     290       189       0         0         0         0         0         
1      723       232       29505     290       266       0         0         0         0         0         
1      527       760       29505     52        291       0         0         0         0         0         
1      788       815       29506     290       290       0         0         0         0         0         
3      923       627       29506     290       189       0         0         0         0         0         
1      607       670       29506     189       280       0         0         0         0         0         
1      331       696       29506     127       189       0         0         0         0         0         
1      896       980       29506     291       291       0         0         0         0         0         
1      700       725       29506     290       290       0         0         0         0         0         
3      923       627       29506     290       189       0         0         0         0         0         
1      884       781       29506     290       291       0         0         0         0         0         
1      556       416       29506     199       100       0         0         0         0         0         
1      702       767       29506     290       290       0         0         0         0         0         
1      503       391       29507     52        52        0         0         0         0         0         
1      769       653       29507     290       189       0         0         0         0         0         
1      716       674       29507     189       189       0         0         0         0         0         
3      858       631       29507     290       189       0         0         0         0         0         
1      961       602       29507     291       189       0         0         0         0         0         
2      858       631       29507     290       189       0         0         0         0         0         
3      576       721       29507     189       290       0         0         0         0         0         
2      576       721       29507     189       290       0         0         0         0         0         
1      693       617       29508     280       131       0         0         0         0         0         
3      419       171       29508     168       286       0         0         0         0         0         
2      171       717       29508     286       189       0         0         0         0         0         
1      502       624       29508     52        189       0         0         0         0         0         
2      152       324       29508     9         299       0         0         0         0         0         
1      621       834       29508     280       290       0         0         0         0         0         
1      1013      1180      29508     84        84        0         0         0         0         0         
3      419       171       29508     168       286       0         0         0         0         0         
1      633       551       29510     189       189       0         0         0         0         0         
1      749       924       29510     290       290       0         0         0         0         0         
1      410       624       29510     52        189       0         0         0         0         0         
2      498       840       29510     52        290       0         0         0         0         0         
1      191       430       29511     266       52        0         0         0         0         0         
1      695       905       29511     189       290       0         0         0         0         0         
1      459       291       29511     189       87        0         0         0         0         0         
1      738       575       29511     189       189       0         0         0         0         0         
2      724       772       29511     290       290       0         0         0         0         0         
1      118       673       29512     286       189       0         0         0         0         0         
1      654       558       29512     189       189       0         0         0         0         0         
1      772       722       29512     290       290       0         0         0         0         0         
1      1095      1339      29512     84        129       0         0         0         0         0         
1      523       134       29512     52        9         0         0         0         0         0         
2      717       734       29513     189       131       0         0         0         0         0         
1      812       627       29513     290       189       0         0         0         0         0         
1      197       408       29513     178       299       0         0         0         0         0         
1      624       710       29513     189       131       0         0         0         0         0         
1      992       925       29513     290       290       0         0         0         0         0         
3      485       374       29513     189       119       0         0         0         0         0         
2      485       374       29513     189       119       0         0         0         0         0         
1      463       984       29514     168       291       0         0         0         0         0         
2      134       48        29514     9         98        0         0         0         0         0         
1      669       408       29514     280       299       0         0         0         0         0         
1      771       511       29514     290       199       0         0         0         0         0         
1      504       117       29514     52        286       0         0         0         0         0         
1      694       488       29514     189       199       0         0         0         0         0         
1      1066      1206      29514     291       192       0         0         0         0         0         
1      527       421       29514     52        168       0         0         0         0         0         
1      624       333       29514     189       119       0         0         0         0         0         
1      718       238       29514     189       87        0         0         0         0         0         
3      883       836       29514     290       290       0         0         0         0         0         
2      883       836       29514     290       290       0         0         0         0         0         
3      328       600       29514     299       280       0         0         0         0         0         
3      328       600       29514     299       280       0         0         0         0         0         
1      504       439       29514     52        189       0         0         0         0         0         
1      907       815       29515     290       290       0         0         0         0         0         
3      668       813       29515     280       290       0         0         0         0         0         
2      668       813       29515     280       290       0         0         0         0         0         
1      801       1462      29515     291       296       0         0         0         0         0         
1      1031      1001      29515     50        291       0         0         0         0         0         
1      737       937       29515     189       291       0         0         0         0         0         
1      666       152       29515     131       9         0         0         0         0         0         
1      693       409       29515     280       52        0         0         0         0         0         
1      417       134       29515     100       9         0         0         0         0         0         
1      606       78        29515     189       9         0         0         0         0         0         
1      990       669       29515     290       280       0         0         0         0         0         
3      788       504       29516     290       52        0         0         0         0         0         
3      667       640       29516     131       131       0         0         0         0         0         
3      667       640       29516     131       131       0         0         0         0         0         
1      510       668       29516     199       280       0         0         0         0         0         
1      64        199       29516     98        178       0         0         0         0         0         
1      438       522       29517     100       52        0         0         0         0         0         
1      418       557       29517     168       189       0         0         0         0         0         
3      48        652       29517     98        189       0         0         0         0         0         
2      969       789       29517     290       290       0         0         0         0         0         
2      504       416       29517     52        100       0         0         0         0         0         
1      969       836       29518     290       290       0         0         0         0         0         
1      839       1012      29518     290       84        0         0         0         0         0         
2      663       669       29518     131       280       0         0         0         0         0         
1      1153      1130      29518     50        291       0         0         0         0         0         
1      152       522       29518     9         52        0         0         0         0         0         
1      466       652       29518     199       189       0         0         0         0         0         
1      118       606       29518     286       189       0         0         0         0         0         
1      768       836       29519     290       290       0         0         0         0         0         
3      968       949       29519     290       290       0         0         0         0         0         
1      250       417       29519     127       100       0         0         0         0         0         
3      968       949       29519     290       290       0         0         0         0         0         
1      512       20        29519     199       98        0         0         0         0         0         
